ACTORES = {Actor1, Actor2, Actor3, Actor4, Actor5} ;

Escenas = [| 1,1,0,1,0,0,0
           | 0,1,0,1,1,1,20
           | 1,1,0,1,0,0,0
           | 0,1,1,0,1,1,20
           | 0,0,1,0,1,1,0|]; 
           
Duracion = [2,1,1,1,3,4];

Disponibilidad =[|Actor1, 0
                 |Actor2, 0
                 |Actor3, 0
                 |Actor4, 0
                 |Actor5, 0|];

Evitar =[|Actor1, Actor5
         |Actor3, Actor5|];
         
% Resultado esperado con optimo lexicografico         
% Orden de las escenas: [1, 4, 2, 5, 6, 3]
% Costo: 360
% CostoxActor: [0, 180, 0, 180, 0]
% Compartidas: [0, 0]
% Objetivo(costoxevitar): 4680
%--------------------------------------------
% Resultado esperado sin optimo lexicografico         
% Orden de las escenas: [1, 3, 2, 5, 6, 4]
% Costo: 360
% CostoxActor: [0, 180, 0, 180, 0]
% Compartidas: [4, 4]
% Objetivo(costoxevitar): 4688